ALGO = Fast
EDIFF = 1e-05
EDIFFG = -0.05
ENCUT = 400
IBRION = 2
ISIF = 2
ISMEAR = 1
ISPIN = 2
LREAL = Auto
LWAVE = False
LCHARG = False
NELM = 300
NSW = 150
POTIM = 0.05
PREC = Normal
MAGMOM = 58*0 INTERCALATED_MAGMOM DOPING_MAGMOM 31*0   ##adjust depending on structure